Route #1: 0 23 43 1 39 28 2 41 0
Route #2: 0 6 22 19 37 3 20 13 0
Route #3: 0 17 21 36 38 25 5 31 0
Route #4: 0 40 45 8 42 11 4 24 30 0
Route #5: 0 14 10 33 46 29 9 34 0
Route #6: 0 47 16 27 15 26 7 0
Route #7: 0 12 32 35 44 18 0
Cost 1568:
